10	5
0	4	3	2	1	8
1	1	4
2	1	4
3	0
4	2	6	7
5	2	9	10
6	1	5
7	2	9	10
8	2	6	7
9	1	11
10	1	11
11	0
0	0	0	0	0	0	0
1	3	1	2	5	5	2
2	10	4	3	4	2	1
3	8	5	5	3	5	4
4	7	4	4	1	4	5
5	6	5	5	4	4	4
6	10	4	4	5	2	4
7	2	2	2	3	5	5
8	9	3	3	5	5	5
9	6	3	5	1	3	4
10	10	4	2	1	2	4
11	0	0	0	0	0	0
9	9	11	11	9
